HUN,8,6,93
4,24,0,23,5,25,3,27,2,23,1,21
0,28,1,26,5,25,3,28,4,29,2,25
1,29,0,25,3,22,4,29,2,26,5,24
5,28,4,21,3,22,1,26,0,25,2,30
3,30,5,23,4,23,2,21,0,29,1,29
0,28,3,21,1,23,2,22,5,23,4,28
2,30,5,22,4,29,3,30,1,29,0,29
3,23,4,23,5,25,1,29,2,28,0,22
